//Dat File

outFile="MPVSBPP_SET1_IT200_ITV1_NT1_TS3_WT1_VT1_REP9";
m=200;
o=34;
p=3;
numVTypes=1;

demand = [2, 5, 10, 4, 3, 10, 1, 11, 7, 10, 2, 2, 2, 10, 5, 7, 3, 11, 6, 10, 7, 8, 1, 5, 6, 6, 5, 7, 9, 4, 1, 9, 2, 2, 7, 5, 11, 7, 6, 2, 10, 6, 5, 11, 11, 10, 9, 11, 5, 7, 7, 6, 11, 1, 10, 10, 4, 2, 9, 11, 5, 1, 2, 7, 3, 10, 10, 11, 2, 8, 3, 9, 11, 9, 4, 2, 10, 7, 11, 11, 1, 2, 1, 4, 9, 3, 10, 8, 9, 10, 2, 2, 11, 3, 7, 1, 3, 9, 11, 2, 8, 3, 4, 11, 5, 1, 2, 1, 2, 6, 4, 7, 3, 2, 8, 4, 11, 10, 1, 3, 9, 7, 11, 5, 1, 11, 10, 1, 4, 8, 6, 3, 2, 10, 10, 7, 7, 2, 6, 10, 2, 9, 10, 4, 6, 10, 2, 11, 9, 4, 17, 16, 19, 15, 13, 16, 16, 16, 17, 16, 15, 12, 16, 15, 12, 15, 15, 16, 19, 12, 14, 14, 14, 18, 17, 19, 18, 15, 14, 18, 16, 13, 16, 17, 18, 15, 14, 19, 19, 17, 12, 16, 19, 17, 15, 16, 19, 16, 14, 18];
Depot_Cap = [30000, 30000, 30000];
Tarif = [10, 3, 7];
VeicVolume = [100];
VeicCost = [100];
VeicType = [1, 1, 1, 1, 1, 1, 1, 1, 1, 1, 1, 1, 1, 1, 1, 1, 1, 1, 1, 1, 1, 1, 1, 1, 1, 1, 1, 1, 1, 1, 1, 1, 1, 1];
Elect_vehicle = [[70, 100, 30], [70, 100, 30], [70, 100, 30], [70, 100, 30], [70, 100, 30], [70, 100, 30], [70, 100, 30], [70, 100, 30], [70, 100, 30], [70, 100, 30], [70, 100, 30], [70, 100, 30], [70, 100, 30], [70, 100, 30], [70, 100, 30], [70, 100, 30], [70, 100, 30], [70, 100, 30], [70, 100, 30], [70, 100, 30], [70, 100, 30], [70, 100, 30], [70, 100, 30], [70, 100, 30], [70, 100, 30], [70, 100, 30], [70, 100, 30], [70, 100, 30], [70, 100, 30], [70, 100, 30], [70, 100, 30], [70, 100, 30], [70, 100, 30], [70, 100, 30]];